plate_width = 19;
n_circuits = 14;
n_shapes = 27;
widths = [3, 3, 3, 3, 3, 3, 3, 3, 3, 3, 3, 4, 4, 4];
lengths = [3, 4, 5, 6, 7, 8, 9, 10, 11, 13, 19, 5, 6, 8];
sizes = [| 3, 3 | 3, 4 | 4, 3 | 3, 5 | 5, 3 | 3, 6 | 6, 3 | 3, 7 | 7, 3 | 3, 8 | 8, 3 | 3, 9 | 9, 3 | 3, 10 | 10, 3 | 3, 11 | 11, 3 | 3, 13 | 13, 3 | 3, 19 | 19, 3 | 4, 5 | 5, 4 | 4, 6 | 6, 4 | 4, 8 | 8, 4 |];
offsets = [| 0, 0 | 0, 0 | 0, 0 | 0, 0 | 0, 0 | 0, 0 | 0, 0 | 0, 0 | 0, 0 | 0, 0 | 0, 0 | 0, 0 | 0, 0 | 0, 0 | 0, 0 | 0, 0 | 0, 0 | 0, 0 | 0, 0 | 0, 0 | 0, 0 | 0, 0 | 0, 0 | 0, 0 | 0, 0 | 0, 0 | 0, 0 |];
shapes = [{1}, {2}, {3}, {4}, {5}, {6}, {7}, {8}, {9}, {10}, {11}, {12}, {13}, {14}, {15}, {16}, {17}, {18}, {19}, {20}, {21}, {22}, {23}, {24}, {25}, {26}, {27}];
valid_shapes = [{1}, {2, 3}, {4, 5}, {6, 7}, {8, 9}, {10, 11}, {12, 13}, {14, 15}, {16, 17}, {18, 19}, {20, 21}, {22, 23}, {24, 25}, {26, 27}];